2	25
129	783	991	538	903	162	171	516	966	590	638	241	952	723	979	653	836	856	835	498	786	874	680	898	764	
151	722	532	205	401	225	614	421	836	600	761	678	533	286	558	713	392	452	603	44	267	671	106	89	702	
2891	2891	
